Route #1: 60 67 152 124 26 171 13 176 155 68 172 28
Route #2: 58 49 14 158 73 8 143 153 166 42 86 38 111
Route #3: 173 126 4 140 33 119 53 41 43 69 107
Route #4: 85 24 177 104 164 154 5 170 181 108 30 93 2
Route #5: 182 183 175 162 168 95 121 88 22 59 132 117 64
Route #6: 9 77 16 159 72 145 136 87 165 148 63 34 65
Route #7: 47 123 70 50 48 179 120 12 129 71 135 184 19
Route #8: 35 74 128 82 97 137 55 169 146 147 21 138 44 92
Route #9: 99 84 27 102 45 91 39 29 57 46 76
Route #10: 83 134 51 150 139 122 151 89 98 20 66 94
Route #11: 180 11 54 112 106 81 75 78 142 100 52
Route #12: 101 96 174 178 114 113 161 79 156 115 118 36
Route #13: 15 31 149 110 80 17 157 61 3 163 103 116 18
Route #14: 37 185 131 10 62 6 7 90 32 23 1 144 40
Route #15: 125 167 56 160 25 105 109 133 141 130 127
Cost 32505
